unsat
(:added-eqs                   6351
 :arith-eq-adapter            107
 :arith-bound-propagations-lp 1215
 :arith-branch                5633
 :arith-conflicts             4987
 :arith-cube-calls            2645
 :arith-diseq                 4062
 :arith-fixed-eqs             2002
 :arith-gcd-calls             10646
 :arith-gcd-conflict          46
 :arith-gomory-cuts           7917
 :arith-hnf-calls             12
 :arith-lower                 185939
 :arith-make-feasible         48120
 :arith-max-columns           112
 :arith-max-rows              69
 :arith-nla-propagate-bounds  4
 :arith-offset-eqs            1247
 :arith-patches               10600
 :arith-patches-success       4
 :arith-upper                 246911
 :binary-propagations         310777
 :conflicts                   5010
 :decisions                   22883
 :del-clause                  13060
 :final-checks                10646
 :max-memory                  60.00
 :memory                      18.27
 :minimized-lits              973
 :mk-bool-var                 14689
 :mk-clause                   13721
 :mk-clause-binary            10056
 :num-allocs                  8083080767.00
 :num-checks                  1
 :propagations                408962
 :restarts                    36
 :rlimit-count                2444048
 :time                        10.99
 :total-time                  10.98)
